jobs 122 
horizon 638 
PRECEDENCE:
1    
2    1
3    1
4    1
5    2
6    3
7    4
8    7
9    8
10    6
11    2
12    4
13    8
14    5
15    12
16    7
17    11
18    5
19    17
20    7
21    14
22    2
23    17
24    22
25    24
26    3
27    14
28    13
29    13
30    13
31    20
32    26
33    32
34    9
35    19
36    27
37    8
38    36
39    16
40    32
41    14
42    9
43    3
44    40
45    36
46    4
47    23
48    40
49    5
50    48
51    19
52    15
53    37
54    29 42
55    25 43
56    24 37
57    19
58    39
59    20
60    38
61    26 34 36
62    32
63    18
64    50 56
65    33
66    44
67    16
68    59
69    64
70    11 54
71    56
72    21 31 54
73    69
74    70
75    30
76    10
77    11
78    31
79    52
80    26
81    66
82    67
83    51
84    55
85    16
86    45
87    35 62 81
88    29 71
89    78
90    77 87
91    50 82
92    86
93    61 85
94    46 80
95    9 53 88
96    50
97    33 72
98    60 84
99    33 91
100    41 74
101    92 94 100
102    63 85 101
103    27 62 73
104    76 97
105    65 87 96
106    54 57 79
107    22 78
108    28 98 107
109    58 103 105
110    83 101
111    72 75 76
112    90 102 105
113    106 109 111
114    57 108
115    56 89 110
116    37 93 114
117    47 84 100
118    49 99 115
119    68 117 118
120    30 95 116
121    104 112 113
122    119 120 121
RESOURCEAVAILABILITY 15
REQUESTS/DURATIONS: 
 1 0 0 
 2 8 0 
 3 5 0 
 4 8 10 
 5 1 0 
 6 8 0 
 7 2 0 
 8 7 0 
 9 10 0 
 10 10 0 
 11 2 0 
 12 8 0 
 13 9 0 
 14 8 0 
 15 1 0 
 16 7 0 
 17 4 4 
 18 4 0 
 19 3 6 
 20 4 0 
 21 4 0 
 22 9 0 
 23 3 3 
 24 2 8 
 25 9 0 
 26 3 5 
 27 1 0 
 28 10 0 
 29 7 0 
 30 7 0 
 31 5 0 
 32 9 0 
 33 2 0 
 34 3 0 
 35 10 0 
 36 5 0 
 37 10 0 
 38 4 9 
 39 2 1 
 40 7 0 
 41 3 0 
 42 6 0 
 43 6 0 
 44 6 0 
 45 7 3 
 46 9 0 
 47 4 0 
 48 2 1 
 49 4 0 
 50 4 0 
 51 7 0 
 52 2 0 
 53 1 0 
 54 2 0 
 55 5 0 
 56 9 10 
 57 7 0 
 58 4 0 
 59 5 0 
 60 2 0 
 61 3 6 
 62 9 0 
 63 8 0 
 64 3 0 
 65 2 0 
 66 7 0 
 67 6 0 
 68 10 0 
 69 2 0 
 70 4 0 
 71 9 0 
 72 8 0 
 73 5 0 
 74 2 0 
 75 3 0 
 76 1 6 
 77 6 0 
 78 7 0 
 79 3 0 
 80 3 0 
 81 5 0 
 82 4 4 
 83 10 0 
 84 2 0 
 85 6 0 
 86 4 0 
 87 8 0 
 88 7 0 
 89 10 0 
 90 7 0 
 91 2 0 
 92 6 0 
 93 9 0 
 94 3 0 
 95 9 0 
 96 4 0 
 97 9 0 
 98 6 0 
 99 5 1 
100 6 0 
101 8 0 
102 10 9 
103 10 9 
104 7 0 
105 5 0 
106 10 9 
107 3 0 
108 3 0 
109 3 9 
110 1 0 
111 5 0 
112 4 0 
113 9 1 
114 2 0 
115 4 0 
116 4 0 
117 3 3 
118 1 0 
119 5 0 
120 1 0 
121 1 0 
122 0 0 
